(set-info :smt-lib-version 2.6)
(set-logic NIA)
(set-info :source "|
Generated by the tool Ultimate Automizer [1,2] which implements
an automata theoretic approach [3] to software verification.

This SMT script belongs to a set of SMT scripts that was generated by
applying Ultimate Automizer to benchmarks [4] from the SV-COMP 2019 [5,6].
This script might _not_ contain all SMT commands that are used by
Ultimate Automizer. In order to satisfy the restrictions of
the SMT-COMP we have to drop e.g., the commands for getting
values (resp. models), unsatisfiable cores and interpolants.

2019-04-27, Matthias Heizmann (heizmann@informatik.uni-freiburg.de)

[1] https://ultimate.informatik.uni-freiburg.de/automizer/
[2] Matthias Heizmann, Yu-Fang Chen, Daniel Dietsch, Marius Greitschus,
     Jochen Hoenicke, Yong Li, Alexander Nutz, Betim Musa, Christian
     Schilling, Tanja Schindler, Andreas Podelski: Ultimate Automizer
     and the Search for Perfect Interpolants - (Competition Contribution).
     TACAS (2) 2018: 447-451
[3] Matthias Heizmann, Jochen Hoenicke, Andreas Podelski: Software Model
     Checking for People Who Love Automata. CAV 2013:36-52
[4] https://github.com/sosy-lab/sv-benchmarks
[5] Dirk Beyer: Automatic Verification of C and Java Programs: SV-COMP 2019.
     TACAS (3) 2019: 133-155
[6] https://sv-comp.sosy-lab.org/2019/
|")
(set-info :license "https://creativecommons.org/licenses/by/4.0/")
(set-info :category "industrial")
(set-info :status unknown)
(declare-fun |gcd_test_#in~a| () Int)
(declare-fun gcd_test_~a () Int)
(declare-fun gcd_test_~b () Int)
(assert (not (let ((_cse0 (mod |gcd_test_#in~a| gcd_test_~a))) (let ((_cse1 (mod _cse0 256))) (and (<= (mod (+ _cse0 (* 255 gcd_test_~a)) 256) 127) (= (+ gcd_test_~b 256) _cse1) (< 127 _cse1) (<= 0 |gcd_test_#in~a|) (= 0 _cse0) (not (= gcd_test_~a 0)) (exists ((v_prenex_1 Int)) (let ((_cse2 (mod (* 255 v_prenex_1) 256))) (and (< 127 _cse2) (= (+ gcd_test_~a 256) _cse2)))) (<= 0 gcd_test_~a))))))
(assert (not (let ((_cse0 (mod |gcd_test_#in~a| gcd_test_~a))) (let ((_cse1 (mod (+ _cse0 gcd_test_~a) 256))) (and (< gcd_test_~a 0) (<= (mod (+ _cse0 (* 255 gcd_test_~a)) 256) 127) (< |gcd_test_#in~a| 0) (= gcd_test_~b _cse1) (< 127 (mod _cse0 256)) (<= _cse1 127) (<= 0 |gcd_test_#in~a|) (not (= gcd_test_~a 0)) (not (= 0 _cse0)) (exists ((v_prenex_1 Int)) (let ((_cse2 (mod (* 255 v_prenex_1) 256))) (and (< 127 _cse2) (= (+ gcd_test_~a 256) _cse2)))))))))
(assert (not (let ((_cse2 (mod |gcd_test_#in~a| gcd_test_~a))) (let ((_cse0 (mod _cse2 256))) (and (<= _cse0 127) (= gcd_test_~b _cse0) (< gcd_test_~a 0) (exists ((v_gcd_test_~b_24 Int)) (let ((_cse1 (mod (* 255 v_gcd_test_~b_24) 256))) (and (= gcd_test_~a _cse1) (<= _cse1 127)))) (< 127 (mod (+ _cse2 (* 255 gcd_test_~a)) 256)) (<= 0 |gcd_test_#in~a|) (not (= gcd_test_~a 0)))))))
(assert (not (let ((_cse1 (mod |gcd_test_#in~a| gcd_test_~a))) (let ((_cse0 (mod _cse1 256))) (and (< gcd_test_~a 0) (= (+ gcd_test_~b 256) _cse0) (< 127 _cse0) (< 127 (mod (+ _cse1 (* 255 gcd_test_~a)) 256)) (<= 0 |gcd_test_#in~a|) (= 0 _cse1) (not (= gcd_test_~a 0)) (exists ((v_prenex_1 Int)) (let ((_cse2 (mod (* 255 v_prenex_1) 256))) (and (< 127 _cse2) (= (+ gcd_test_~a 256) _cse2)))))))))
(assert (not (let ((_cse1 (mod |gcd_test_#in~a| gcd_test_~a))) (let ((_cse0 (mod _cse1 256))) (and (<= _cse0 127) (= gcd_test_~b _cse0) (< 127 (mod (+ _cse1 (* 255 gcd_test_~a)) 256)) (<= 0 |gcd_test_#in~a|) (not (= gcd_test_~a 0)) (exists ((v_prenex_1 Int)) (let ((_cse2 (mod (* 255 v_prenex_1) 256))) (and (< 127 _cse2) (= (+ gcd_test_~a 256) _cse2)))) (<= 0 gcd_test_~a))))))
(assert (not (let ((_cse0 (mod |gcd_test_#in~a| gcd_test_~a))) (let ((_cse1 (mod (+ _cse0 (* 255 gcd_test_~a)) 256))) (and (< |gcd_test_#in~a| 0) (< 127 (mod (+ _cse0 gcd_test_~a) 256)) (< 127 (mod _cse0 256)) (< 127 _cse1) (= (+ gcd_test_~b 256) _cse1) (<= 0 |gcd_test_#in~a|) (not (= gcd_test_~a 0)) (not (= 0 _cse0)) (exists ((v_prenex_1 Int)) (let ((_cse2 (mod (* 255 v_prenex_1) 256))) (and (< 127 _cse2) (= (+ gcd_test_~a 256) _cse2)))) (<= 0 gcd_test_~a))))))
(assert (not (let ((_cse0 (mod |gcd_test_#in~a| gcd_test_~a))) (let ((_cse1 (mod (+ _cse0 gcd_test_~a) 256))) (and (<= (mod _cse0 256) 127) (< gcd_test_~a 0) (<= (mod (+ _cse0 (* 255 gcd_test_~a)) 256) 127) (< |gcd_test_#in~a| 0) (= gcd_test_~b _cse1) (<= _cse1 127) (<= 0 |gcd_test_#in~a|) (not (= gcd_test_~a 0)) (not (= 0 _cse0)) (exists ((v_prenex_1 Int)) (let ((_cse2 (mod (* 255 v_prenex_1) 256))) (and (< 127 _cse2) (= (+ gcd_test_~a 256) _cse2)))))))))
(assert (not (let ((_cse1 (mod |gcd_test_#in~a| gcd_test_~a))) (let ((_cse0 (mod _cse1 256))) (and (<= _cse0 127) (= gcd_test_~b _cse0) (< gcd_test_~a 0) (< 127 (mod (+ _cse1 (* 255 gcd_test_~a)) 256)) (<= 0 |gcd_test_#in~a|) (not (= gcd_test_~a 0)) (exists ((v_prenex_1 Int)) (let ((_cse2 (mod (* 255 v_prenex_1) 256))) (and (< 127 _cse2) (= (+ gcd_test_~a 256) _cse2)))))))))
(assert (not (let ((_cse0 (mod |gcd_test_#in~a| gcd_test_~a))) (let ((_cse2 (mod (+ _cse0 (* 255 gcd_test_~a)) 256))) (and (< |gcd_test_#in~a| 0) (< 127 (mod (+ _cse0 gcd_test_~a) 256)) (exists ((v_gcd_test_~b_24 Int)) (let ((_cse1 (mod (* 255 v_gcd_test_~b_24) 256))) (and (= gcd_test_~a _cse1) (<= _cse1 127)))) (< 127 (mod _cse0 256)) (< 127 _cse2) (= (+ gcd_test_~b 256) _cse2) (<= 0 |gcd_test_#in~a|) (not (= gcd_test_~a 0)) (not (= 0 _cse0)) (<= 0 gcd_test_~a))))))
(assert (not (let ((_cse1 (mod |gcd_test_#in~a| gcd_test_~a))) (let ((_cse0 (mod _cse1 256))) (and (<= _cse0 127) (= gcd_test_~b _cse0) (< gcd_test_~a 0) (<= (mod (+ _cse1 (* 255 gcd_test_~a)) 256) 127) (exists ((v_gcd_test_~b_24 Int)) (let ((_cse2 (mod (* 255 v_gcd_test_~b_24) 256))) (and (= gcd_test_~a _cse2) (<= _cse2 127)))) (<= 0 |gcd_test_#in~a|) (not (= gcd_test_~a 0)))))))
(assert (not (let ((_cse0 (mod |gcd_test_#in~a| gcd_test_~a))) (let ((_cse1 (mod (+ _cse0 (* 255 gcd_test_~a)) 256))) (and (<= (mod _cse0 256) 127) (< |gcd_test_#in~a| 0) (< 127 (mod (+ _cse0 gcd_test_~a) 256)) (< 127 _cse1) (= (+ gcd_test_~b 256) _cse1) (<= 0 |gcd_test_#in~a|) (not (= gcd_test_~a 0)) (not (= 0 _cse0)) (exists ((v_prenex_1 Int)) (let ((_cse2 (mod (* 255 v_prenex_1) 256))) (and (< 127 _cse2) (= (+ gcd_test_~a 256) _cse2)))) (<= 0 gcd_test_~a))))))
(assert (not (let ((_cse0 (mod |gcd_test_#in~a| gcd_test_~a))) (let ((_cse1 (mod _cse0 256))) (and (< gcd_test_~a 0) (<= (mod (+ _cse0 (* 255 gcd_test_~a)) 256) 127) (= (+ gcd_test_~b 256) _cse1) (< 127 _cse1) (<= 0 |gcd_test_#in~a|) (not (= gcd_test_~a 0)) (exists ((v_prenex_1 Int)) (let ((_cse2 (mod (* 255 v_prenex_1) 256))) (and (< 127 _cse2) (= (+ gcd_test_~a 256) _cse2)))))))))
(assert (not (let ((_cse2 (mod |gcd_test_#in~a| gcd_test_~a))) (let ((_cse0 (mod (+ _cse2 gcd_test_~a) 256))) (and (< gcd_test_~a 0) (< |gcd_test_#in~a| 0) (= (+ gcd_test_~b 256) _cse0) (< 127 _cse0) (exists ((v_gcd_test_~b_24 Int)) (let ((_cse1 (mod (* 255 v_gcd_test_~b_24) 256))) (and (= gcd_test_~a _cse1) (<= _cse1 127)))) (< 127 (mod _cse2 256)) (< 127 (mod (+ _cse2 (* 255 gcd_test_~a)) 256)) (<= 0 |gcd_test_#in~a|) (not (= gcd_test_~a 0)) (not (= 0 _cse2)))))))
(assert (not (let ((_cse0 (mod |gcd_test_#in~a| gcd_test_~a))) (let ((_cse1 (mod (+ _cse0 gcd_test_~a) 256))) (and (<= (mod _cse0 256) 127) (< gcd_test_~a 0) (< |gcd_test_#in~a| 0) (= (+ gcd_test_~b 256) _cse1) (< 127 _cse1) (< 127 (mod (+ _cse0 (* 255 gcd_test_~a)) 256)) (<= 0 |gcd_test_#in~a|) (not (= gcd_test_~a 0)) (not (= 0 _cse0)) (exists ((v_prenex_1 Int)) (let ((_cse2 (mod (* 255 v_prenex_1) 256))) (and (< 127 _cse2) (= (+ gcd_test_~a 256) _cse2)))))))))
(assert (not (let ((_cse0 (mod |gcd_test_#in~a| gcd_test_~a))) (let ((_cse1 (mod _cse0 256))) (and (<= (mod (+ _cse0 (* 255 gcd_test_~a)) 256) 127) (= (+ gcd_test_~b 256) _cse1) (exists ((v_gcd_test_~b_24 Int)) (let ((_cse2 (mod (* 255 v_gcd_test_~b_24) 256))) (and (= gcd_test_~a _cse2) (<= _cse2 127)))) (< 127 _cse1) (<= 0 |gcd_test_#in~a|) (not (= gcd_test_~a 0)) (<= 0 gcd_test_~a))))))
(assert (not (let ((_cse1 (mod |gcd_test_#in~a| gcd_test_~a))) (let ((_cse0 (mod (+ _cse1 (* 255 gcd_test_~a)) 256))) (and (<= _cse0 127) (< |gcd_test_#in~a| 0) (< 127 (mod _cse1 256)) (= gcd_test_~b _cse0) (<= (mod (+ _cse1 gcd_test_~a) 256) 127) (<= 0 |gcd_test_#in~a|) (not (= gcd_test_~a 0)) (not (= 0 _cse1)) (exists ((v_prenex_1 Int)) (let ((_cse2 (mod (* 255 v_prenex_1) 256))) (and (< 127 _cse2) (= (+ gcd_test_~a 256) _cse2)))) (<= 0 gcd_test_~a))))))
(assert (not (let ((_cse0 (mod |gcd_test_#in~a| gcd_test_~a))) (let ((_cse2 (mod (+ _cse0 (* 255 gcd_test_~a)) 256))) (and (<= (mod _cse0 256) 127) (< |gcd_test_#in~a| 0) (< 127 (mod (+ _cse0 gcd_test_~a) 256)) (exists ((v_gcd_test_~b_24 Int)) (let ((_cse1 (mod (* 255 v_gcd_test_~b_24) 256))) (and (= gcd_test_~a _cse1) (<= _cse1 127)))) (< 127 _cse2) (= (+ gcd_test_~b 256) _cse2) (<= 0 |gcd_test_#in~a|) (not (= gcd_test_~a 0)) (not (= 0 _cse0)) (<= 0 gcd_test_~a))))))
(assert (not (let ((_cse2 (mod |gcd_test_#in~a| gcd_test_~a))) (let ((_cse0 (mod _cse2 256))) (and (<= _cse0 127) (= gcd_test_~b _cse0) (< gcd_test_~a 0) (exists ((v_gcd_test_~b_24 Int)) (let ((_cse1 (mod (* 255 v_gcd_test_~b_24) 256))) (and (= gcd_test_~a _cse1) (<= _cse1 127)))) (< 127 (mod (+ _cse2 (* 255 gcd_test_~a)) 256)) (<= 0 |gcd_test_#in~a|) (= 0 _cse2) (not (= gcd_test_~a 0)))))))
(assert (not (let ((_cse1 (mod |gcd_test_#in~a| gcd_test_~a))) (let ((_cse0 (mod _cse1 256))) (and (<= _cse0 127) (= gcd_test_~b _cse0) (< gcd_test_~a 0) (<= (mod (+ _cse1 (* 255 gcd_test_~a)) 256) 127) (<= 0 |gcd_test_#in~a|) (not (= gcd_test_~a 0)) (exists ((v_prenex_1 Int)) (let ((_cse2 (mod (* 255 v_prenex_1) 256))) (and (< 127 _cse2) (= (+ gcd_test_~a 256) _cse2)))))))))
(assert (not (let ((_cse0 (mod |gcd_test_#in~a| gcd_test_~a))) (let ((_cse1 (mod (+ _cse0 (* 255 gcd_test_~a)) 256))) (and (<= (mod _cse0 256) 127) (< |gcd_test_#in~a| 0) (<= (mod (+ _cse0 gcd_test_~a) 256) 127) (< 127 _cse1) (= (+ gcd_test_~b 256) _cse1) (<= 0 |gcd_test_#in~a|) (not (= gcd_test_~a 0)) (not (= 0 _cse0)) (exists ((v_prenex_1 Int)) (let ((_cse2 (mod (* 255 v_prenex_1) 256))) (and (< 127 _cse2) (= (+ gcd_test_~a 256) _cse2)))) (<= 0 gcd_test_~a))))))
(assert (not (let ((_cse1 (mod |gcd_test_#in~a| gcd_test_~a))) (let ((_cse0 (mod (+ _cse1 gcd_test_~a) 256))) (and (< gcd_test_~a 0) (< |gcd_test_#in~a| 0) (= (+ gcd_test_~b 256) _cse0) (< 127 _cse0) (< 127 (mod _cse1 256)) (< 127 (mod (+ _cse1 (* 255 gcd_test_~a)) 256)) (<= 0 |gcd_test_#in~a|) (not (= gcd_test_~a 0)) (not (= 0 _cse1)) (exists ((v_prenex_1 Int)) (let ((_cse2 (mod (* 255 v_prenex_1) 256))) (and (< 127 _cse2) (= (+ gcd_test_~a 256) _cse2)))))))))
(assert (not (let ((_cse0 (mod |gcd_test_#in~a| gcd_test_~a))) (let ((_cse1 (mod (+ _cse0 (* 255 gcd_test_~a)) 256))) (and (<= (mod _cse0 256) 127) (<= _cse1 127) (< |gcd_test_#in~a| 0) (exists ((v_gcd_test_~b_24 Int)) (let ((_cse2 (mod (* 255 v_gcd_test_~b_24) 256))) (and (= gcd_test_~a _cse2) (<= _cse2 127)))) (= gcd_test_~b _cse1) (<= (mod (+ _cse0 gcd_test_~a) 256) 127) (<= 0 |gcd_test_#in~a|) (not (= gcd_test_~a 0)) (not (= 0 _cse0)) (<= 0 gcd_test_~a))))))
(assert (not (let ((_cse1 (mod |gcd_test_#in~a| gcd_test_~a))) (let ((_cse0 (mod _cse1 256))) (and (< gcd_test_~a 0) (= (+ gcd_test_~b 256) _cse0) (< 127 _cse0) (< 127 (mod (+ _cse1 (* 255 gcd_test_~a)) 256)) (<= 0 |gcd_test_#in~a|) (not (= gcd_test_~a 0)) (exists ((v_prenex_1 Int)) (let ((_cse2 (mod (* 255 v_prenex_1) 256))) (and (< 127 _cse2) (= (+ gcd_test_~a 256) _cse2)))))))))
(assert (not (let ((_cse1 (mod |gcd_test_#in~a| gcd_test_~a))) (let ((_cse0 (mod _cse1 256))) (and (<= _cse0 127) (= gcd_test_~b _cse0) (< gcd_test_~a 0) (<= (mod (+ _cse1 (* 255 gcd_test_~a)) 256) 127) (<= 0 |gcd_test_#in~a|) (= 0 _cse1) (not (= gcd_test_~a 0)) (exists ((v_prenex_1 Int)) (let ((_cse2 (mod (* 255 v_prenex_1) 256))) (and (< 127 _cse2) (= (+ gcd_test_~a 256) _cse2)))))))))
(assert (not (let ((_cse2 (mod |gcd_test_#in~a| gcd_test_~a))) (let ((_cse0 (mod _cse2 256))) (and (<= _cse0 127) (= gcd_test_~b _cse0) (exists ((v_gcd_test_~b_24 Int)) (let ((_cse1 (mod (* 255 v_gcd_test_~b_24) 256))) (and (= gcd_test_~a _cse1) (<= _cse1 127)))) (< 127 (mod (+ _cse2 (* 255 gcd_test_~a)) 256)) (<= 0 |gcd_test_#in~a|) (not (= gcd_test_~a 0)) (<= 0 gcd_test_~a))))))
(assert (not (let ((_cse0 (mod |gcd_test_#in~a| gcd_test_~a))) (let ((_cse1 (mod _cse0 256))) (and (<= (mod (+ _cse0 (* 255 gcd_test_~a)) 256) 127) (= (+ gcd_test_~b 256) _cse1) (exists ((v_gcd_test_~b_24 Int)) (let ((_cse2 (mod (* 255 v_gcd_test_~b_24) 256))) (and (= gcd_test_~a _cse2) (<= _cse2 127)))) (< 127 _cse1) (<= 0 |gcd_test_#in~a|) (= 0 _cse0) (not (= gcd_test_~a 0)) (<= 0 gcd_test_~a))))))
(assert (not (let ((_cse2 (mod |gcd_test_#in~a| gcd_test_~a))) (let ((_cse0 (mod (+ _cse2 gcd_test_~a) 256))) (and (< gcd_test_~a 0) (< |gcd_test_#in~a| 0) (= gcd_test_~b _cse0) (exists ((v_gcd_test_~b_24 Int)) (let ((_cse1 (mod (* 255 v_gcd_test_~b_24) 256))) (and (= gcd_test_~a _cse1) (<= _cse1 127)))) (< 127 (mod _cse2 256)) (<= _cse0 127) (< 127 (mod (+ _cse2 (* 255 gcd_test_~a)) 256)) (<= 0 |gcd_test_#in~a|) (not (= gcd_test_~a 0)) (not (= 0 _cse2)))))))
(assert (not (let ((_cse0 (mod |gcd_test_#in~a| gcd_test_~a))) (let ((_cse1 (mod _cse0 256))) (and (< gcd_test_~a 0) (<= (mod (+ _cse0 (* 255 gcd_test_~a)) 256) 127) (= (+ gcd_test_~b 256) _cse1) (< 127 _cse1) (<= 0 |gcd_test_#in~a|) (= 0 _cse0) (not (= gcd_test_~a 0)) (exists ((v_prenex_1 Int)) (let ((_cse2 (mod (* 255 v_prenex_1) 256))) (and (< 127 _cse2) (= (+ gcd_test_~a 256) _cse2)))))))))
(assert (not (let ((_cse0 (mod |gcd_test_#in~a| gcd_test_~a))) (let ((_cse1 (mod (+ _cse0 (* 255 gcd_test_~a)) 256))) (and (< |gcd_test_#in~a| 0) (< 127 (mod _cse0 256)) (<= (mod (+ _cse0 gcd_test_~a) 256) 127) (< 127 _cse1) (= (+ gcd_test_~b 256) _cse1) (<= 0 |gcd_test_#in~a|) (not (= gcd_test_~a 0)) (not (= 0 _cse0)) (exists ((v_prenex_1 Int)) (let ((_cse2 (mod (* 255 v_prenex_1) 256))) (and (< 127 _cse2) (= (+ gcd_test_~a 256) _cse2)))) (<= 0 gcd_test_~a))))))
(assert (not (let ((_cse0 (mod |gcd_test_#in~a| gcd_test_~a))) (let ((_cse1 (mod _cse0 256))) (and (< gcd_test_~a 0) (<= (mod (+ _cse0 (* 255 gcd_test_~a)) 256) 127) (= (+ gcd_test_~b 256) _cse1) (exists ((v_gcd_test_~b_24 Int)) (let ((_cse2 (mod (* 255 v_gcd_test_~b_24) 256))) (and (= gcd_test_~a _cse2) (<= _cse2 127)))) (< 127 _cse1) (<= 0 |gcd_test_#in~a|) (= 0 _cse0) (not (= gcd_test_~a 0)))))))
(assert (not (let ((_cse0 (mod |gcd_test_#in~a| gcd_test_~a))) (let ((_cse1 (mod (+ _cse0 gcd_test_~a) 256))) (and (<= (mod _cse0 256) 127) (< gcd_test_~a 0) (<= (mod (+ _cse0 (* 255 gcd_test_~a)) 256) 127) (< |gcd_test_#in~a| 0) (= gcd_test_~b _cse1) (exists ((v_gcd_test_~b_24 Int)) (let ((_cse2 (mod (* 255 v_gcd_test_~b_24) 256))) (and (= gcd_test_~a _cse2) (<= _cse2 127)))) (<= _cse1 127) (<= 0 |gcd_test_#in~a|) (not (= gcd_test_~a 0)) (not (= 0 _cse0)))))))
(assert (not (let ((_cse0 (mod |gcd_test_#in~a| gcd_test_~a))) (let ((_cse1 (mod _cse0 256))) (and (<= (mod (+ _cse0 (* 255 gcd_test_~a)) 256) 127) (= (+ gcd_test_~b 256) _cse1) (< 127 _cse1) (<= 0 |gcd_test_#in~a|) (not (= gcd_test_~a 0)) (exists ((v_prenex_1 Int)) (let ((_cse2 (mod (* 255 v_prenex_1) 256))) (and (< 127 _cse2) (= (+ gcd_test_~a 256) _cse2)))) (<= 0 gcd_test_~a))))))
(assert (not (let ((_cse1 (mod |gcd_test_#in~a| gcd_test_~a))) (let ((_cse0 (mod _cse1 256))) (and (= (+ gcd_test_~b 256) _cse0) (< 127 _cse0) (< 127 (mod (+ _cse1 (* 255 gcd_test_~a)) 256)) (<= 0 |gcd_test_#in~a|) (not (= gcd_test_~a 0)) (exists ((v_prenex_1 Int)) (let ((_cse2 (mod (* 255 v_prenex_1) 256))) (and (< 127 _cse2) (= (+ gcd_test_~a 256) _cse2)))) (<= 0 gcd_test_~a))))))
(assert (not (let ((_cse1 (mod |gcd_test_#in~a| gcd_test_~a))) (let ((_cse0 (mod (+ _cse1 gcd_test_~a) 256))) (and (< gcd_test_~a 0) (< |gcd_test_#in~a| 0) (= gcd_test_~b _cse0) (< 127 (mod _cse1 256)) (<= _cse0 127) (< 127 (mod (+ _cse1 (* 255 gcd_test_~a)) 256)) (<= 0 |gcd_test_#in~a|) (not (= gcd_test_~a 0)) (not (= 0 _cse1)) (exists ((v_prenex_1 Int)) (let ((_cse2 (mod (* 255 v_prenex_1) 256))) (and (< 127 _cse2) (= (+ gcd_test_~a 256) _cse2)))))))))
(assert (not (let ((_cse0 (mod |gcd_test_#in~a| gcd_test_~a))) (let ((_cse1 (mod (+ _cse0 gcd_test_~a) 256))) (and (<= (mod _cse0 256) 127) (< gcd_test_~a 0) (< |gcd_test_#in~a| 0) (= gcd_test_~b _cse1) (exists ((v_gcd_test_~b_24 Int)) (let ((_cse2 (mod (* 255 v_gcd_test_~b_24) 256))) (and (= gcd_test_~a _cse2) (<= _cse2 127)))) (<= _cse1 127) (< 127 (mod (+ _cse0 (* 255 gcd_test_~a)) 256)) (<= 0 |gcd_test_#in~a|) (not (= gcd_test_~a 0)) (not (= 0 _cse0)))))))
(assert (not (let ((_cse0 (mod |gcd_test_#in~a| gcd_test_~a))) (let ((_cse1 (mod (+ _cse0 gcd_test_~a) 256))) (and (< gcd_test_~a 0) (<= (mod (+ _cse0 (* 255 gcd_test_~a)) 256) 127) (< |gcd_test_#in~a| 0) (= gcd_test_~b _cse1) (exists ((v_gcd_test_~b_24 Int)) (let ((_cse2 (mod (* 255 v_gcd_test_~b_24) 256))) (and (= gcd_test_~a _cse2) (<= _cse2 127)))) (< 127 (mod _cse0 256)) (<= _cse1 127) (<= 0 |gcd_test_#in~a|) (not (= gcd_test_~a 0)) (not (= 0 _cse0)))))))
(assert (not (let ((_cse0 (mod |gcd_test_#in~a| gcd_test_~a))) (let ((_cse1 (mod (+ _cse0 (* 255 gcd_test_~a)) 256))) (and (<= (mod _cse0 256) 127) (<= _cse1 127) (< |gcd_test_#in~a| 0) (= gcd_test_~b _cse1) (<= (mod (+ _cse0 gcd_test_~a) 256) 127) (<= 0 |gcd_test_#in~a|) (not (= gcd_test_~a 0)) (not (= 0 _cse0)) (exists ((v_prenex_1 Int)) (let ((_cse2 (mod (* 255 v_prenex_1) 256))) (and (< 127 _cse2) (= (+ gcd_test_~a 256) _cse2)))) (<= 0 gcd_test_~a))))))
(assert (not (let ((_cse2 (mod |gcd_test_#in~a| gcd_test_~a))) (let ((_cse0 (mod (+ _cse2 (* 255 gcd_test_~a)) 256))) (and (<= _cse0 127) (< |gcd_test_#in~a| 0) (exists ((v_gcd_test_~b_24 Int)) (let ((_cse1 (mod (* 255 v_gcd_test_~b_24) 256))) (and (= gcd_test_~a _cse1) (<= _cse1 127)))) (< 127 (mod _cse2 256)) (= gcd_test_~b _cse0) (<= (mod (+ _cse2 gcd_test_~a) 256) 127) (<= 0 |gcd_test_#in~a|) (not (= gcd_test_~a 0)) (not (= 0 _cse2)) (<= 0 gcd_test_~a))))))
(assert (not (let ((_cse0 (mod |gcd_test_#in~a| gcd_test_~a))) (let ((_cse2 (mod (+ _cse0 (* 255 gcd_test_~a)) 256))) (and (<= (mod _cse0 256) 127) (< |gcd_test_#in~a| 0) (exists ((v_gcd_test_~b_24 Int)) (let ((_cse1 (mod (* 255 v_gcd_test_~b_24) 256))) (and (= gcd_test_~a _cse1) (<= _cse1 127)))) (<= (mod (+ _cse0 gcd_test_~a) 256) 127) (< 127 _cse2) (= (+ gcd_test_~b 256) _cse2) (<= 0 |gcd_test_#in~a|) (not (= gcd_test_~a 0)) (not (= 0 _cse0)) (<= 0 gcd_test_~a))))))
(assert (not (let ((_cse0 (mod |gcd_test_#in~a| gcd_test_~a))) (let ((_cse1 (mod (+ _cse0 (* 255 gcd_test_~a)) 256))) (and (<= (mod _cse0 256) 127) (<= _cse1 127) (< |gcd_test_#in~a| 0) (< 127 (mod (+ _cse0 gcd_test_~a) 256)) (= gcd_test_~b _cse1) (<= 0 |gcd_test_#in~a|) (not (= gcd_test_~a 0)) (not (= 0 _cse0)) (exists ((v_prenex_1 Int)) (let ((_cse2 (mod (* 255 v_prenex_1) 256))) (and (< 127 _cse2) (= (+ gcd_test_~a 256) _cse2)))) (<= 0 gcd_test_~a))))))
(assert (not (let ((_cse0 (mod |gcd_test_#in~a| gcd_test_~a))) (let ((_cse1 (mod (+ _cse0 gcd_test_~a) 256))) (and (< gcd_test_~a 0) (<= (mod (+ _cse0 (* 255 gcd_test_~a)) 256) 127) (< |gcd_test_#in~a| 0) (= (+ gcd_test_~b 256) _cse1) (< 127 _cse1) (< 127 (mod _cse0 256)) (<= 0 |gcd_test_#in~a|) (not (= gcd_test_~a 0)) (not (= 0 _cse0)) (exists ((v_prenex_1 Int)) (let ((_cse2 (mod (* 255 v_prenex_1) 256))) (and (< 127 _cse2) (= (+ gcd_test_~a 256) _cse2)))))))))
(assert (not (let ((_cse0 (mod |gcd_test_#in~a| gcd_test_~a))) (let ((_cse1 (mod _cse0 256))) (and (< gcd_test_~a 0) (<= (mod (+ _cse0 (* 255 gcd_test_~a)) 256) 127) (= (+ gcd_test_~b 256) _cse1) (exists ((v_gcd_test_~b_24 Int)) (let ((_cse2 (mod (* 255 v_gcd_test_~b_24) 256))) (and (= gcd_test_~a _cse2) (<= _cse2 127)))) (< 127 _cse1) (<= 0 |gcd_test_#in~a|) (not (= gcd_test_~a 0)))))))
(assert (not (let ((_cse1 (mod |gcd_test_#in~a| gcd_test_~a))) (let ((_cse0 (mod _cse1 256))) (and (<= _cse0 127) (= gcd_test_~b _cse0) (< 127 (mod (+ _cse1 (* 255 gcd_test_~a)) 256)) (<= 0 |gcd_test_#in~a|) (= 0 _cse1) (not (= gcd_test_~a 0)) (exists ((v_prenex_1 Int)) (let ((_cse2 (mod (* 255 v_prenex_1) 256))) (and (< 127 _cse2) (= (+ gcd_test_~a 256) _cse2)))) (<= 0 gcd_test_~a))))))
(assert (not (let ((_cse1 (mod |gcd_test_#in~a| gcd_test_~a))) (let ((_cse0 (mod _cse1 256))) (and (<= _cse0 127) (= gcd_test_~b _cse0) (<= (mod (+ _cse1 (* 255 gcd_test_~a)) 256) 127) (exists ((v_gcd_test_~b_24 Int)) (let ((_cse2 (mod (* 255 v_gcd_test_~b_24) 256))) (and (= gcd_test_~a _cse2) (<= _cse2 127)))) (<= 0 |gcd_test_#in~a|) (= 0 _cse1) (not (= gcd_test_~a 0)) (<= 0 gcd_test_~a))))))
(assert (not (let ((_cse1 (mod |gcd_test_#in~a| gcd_test_~a))) (let ((_cse2 (mod (+ _cse1 (* 255 gcd_test_~a)) 256))) (and (< |gcd_test_#in~a| 0) (exists ((v_gcd_test_~b_24 Int)) (let ((_cse0 (mod (* 255 v_gcd_test_~b_24) 256))) (and (= gcd_test_~a _cse0) (<= _cse0 127)))) (< 127 (mod _cse1 256)) (<= (mod (+ _cse1 gcd_test_~a) 256) 127) (< 127 _cse2) (= (+ gcd_test_~b 256) _cse2) (<= 0 |gcd_test_#in~a|) (not (= gcd_test_~a 0)) (not (= 0 _cse1)) (<= 0 gcd_test_~a))))))
(assert (not (let ((_cse1 (mod |gcd_test_#in~a| gcd_test_~a))) (let ((_cse0 (mod _cse1 256))) (and (<= _cse0 127) (= gcd_test_~b _cse0) (<= (mod (+ _cse1 (* 255 gcd_test_~a)) 256) 127) (exists ((v_gcd_test_~b_24 Int)) (let ((_cse2 (mod (* 255 v_gcd_test_~b_24) 256))) (and (= gcd_test_~a _cse2) (<= _cse2 127)))) (<= 0 |gcd_test_#in~a|) (not (= gcd_test_~a 0)) (<= 0 gcd_test_~a))))))
(assert (not (let ((_cse0 (mod |gcd_test_#in~a| gcd_test_~a))) (let ((_cse1 (mod (+ _cse0 gcd_test_~a) 256))) (and (<= (mod _cse0 256) 127) (< gcd_test_~a 0) (< |gcd_test_#in~a| 0) (= gcd_test_~b _cse1) (<= _cse1 127) (< 127 (mod (+ _cse0 (* 255 gcd_test_~a)) 256)) (<= 0 |gcd_test_#in~a|) (not (= gcd_test_~a 0)) (not (= 0 _cse0)) (exists ((v_prenex_1 Int)) (let ((_cse2 (mod (* 255 v_prenex_1) 256))) (and (< 127 _cse2) (= (+ gcd_test_~a 256) _cse2)))))))))
(assert (not (let ((_cse1 (mod |gcd_test_#in~a| gcd_test_~a))) (let ((_cse0 (mod _cse1 256))) (and (<= _cse0 127) (= gcd_test_~b _cse0) (<= (mod (+ _cse1 (* 255 gcd_test_~a)) 256) 127) (<= 0 |gcd_test_#in~a|) (not (= gcd_test_~a 0)) (exists ((v_prenex_1 Int)) (let ((_cse2 (mod (* 255 v_prenex_1) 256))) (and (< 127 _cse2) (= (+ gcd_test_~a 256) _cse2)))) (<= 0 gcd_test_~a))))))
(assert (not (let ((_cse2 (mod |gcd_test_#in~a| gcd_test_~a))) (let ((_cse0 (mod _cse2 256))) (and (<= _cse0 127) (= gcd_test_~b _cse0) (exists ((v_gcd_test_~b_24 Int)) (let ((_cse1 (mod (* 255 v_gcd_test_~b_24) 256))) (and (= gcd_test_~a _cse1) (<= _cse1 127)))) (< 127 (mod (+ _cse2 (* 255 gcd_test_~a)) 256)) (<= 0 |gcd_test_#in~a|) (= 0 _cse2) (not (= gcd_test_~a 0)) (<= 0 gcd_test_~a))))))
(assert (not (let ((_cse1 (mod |gcd_test_#in~a| gcd_test_~a))) (let ((_cse0 (mod _cse1 256))) (and (<= _cse0 127) (= gcd_test_~b _cse0) (<= (mod (+ _cse1 (* 255 gcd_test_~a)) 256) 127) (<= 0 |gcd_test_#in~a|) (= 0 _cse1) (not (= gcd_test_~a 0)) (exists ((v_prenex_1 Int)) (let ((_cse2 (mod (* 255 v_prenex_1) 256))) (and (< 127 _cse2) (= (+ gcd_test_~a 256) _cse2)))) (<= 0 gcd_test_~a))))))
(assert (not (let ((_cse0 (mod |gcd_test_#in~a| gcd_test_~a))) (let ((_cse1 (mod (+ _cse0 (* 255 gcd_test_~a)) 256))) (and (<= (mod _cse0 256) 127) (<= _cse1 127) (< |gcd_test_#in~a| 0) (< 127 (mod (+ _cse0 gcd_test_~a) 256)) (exists ((v_gcd_test_~b_24 Int)) (let ((_cse2 (mod (* 255 v_gcd_test_~b_24) 256))) (and (= gcd_test_~a _cse2) (<= _cse2 127)))) (= gcd_test_~b _cse1) (<= 0 |gcd_test_#in~a|) (not (= gcd_test_~a 0)) (not (= 0 _cse0)) (<= 0 gcd_test_~a))))))
(assert (not (let ((_cse2 (mod |gcd_test_#in~a| gcd_test_~a))) (let ((_cse0 (mod _cse2 256))) (and (= (+ gcd_test_~b 256) _cse0) (exists ((v_gcd_test_~b_24 Int)) (let ((_cse1 (mod (* 255 v_gcd_test_~b_24) 256))) (and (= gcd_test_~a _cse1) (<= _cse1 127)))) (< 127 _cse0) (< 127 (mod (+ _cse2 (* 255 gcd_test_~a)) 256)) (<= 0 |gcd_test_#in~a|) (= 0 _cse2) (not (= gcd_test_~a 0)) (<= 0 gcd_test_~a))))))
(assert (not (let ((_cse1 (mod |gcd_test_#in~a| gcd_test_~a))) (let ((_cse0 (mod (+ _cse1 (* 255 gcd_test_~a)) 256))) (and (<= _cse0 127) (< |gcd_test_#in~a| 0) (< 127 (mod (+ _cse1 gcd_test_~a) 256)) (< 127 (mod _cse1 256)) (= gcd_test_~b _cse0) (<= 0 |gcd_test_#in~a|) (not (= gcd_test_~a 0)) (not (= 0 _cse1)) (exists ((v_prenex_1 Int)) (let ((_cse2 (mod (* 255 v_prenex_1) 256))) (and (< 127 _cse2) (= (+ gcd_test_~a 256) _cse2)))) (<= 0 gcd_test_~a))))))
(assert (not (let ((_cse1 (mod |gcd_test_#in~a| gcd_test_~a))) (let ((_cse0 (mod (+ _cse1 (* 255 gcd_test_~a)) 256))) (and (<= _cse0 127) (< |gcd_test_#in~a| 0) (< 127 (mod (+ _cse1 gcd_test_~a) 256)) (exists ((v_gcd_test_~b_24 Int)) (let ((_cse2 (mod (* 255 v_gcd_test_~b_24) 256))) (and (= gcd_test_~a _cse2) (<= _cse2 127)))) (< 127 (mod _cse1 256)) (= gcd_test_~b _cse0) (<= 0 |gcd_test_#in~a|) (not (= gcd_test_~a 0)) (not (= 0 _cse1)) (<= 0 gcd_test_~a))))))
(check-sat)
(exit)
